c
c start with comments
c
p cnf 53 40
31 -24 0
37 -14 0
7 15 -46 0
-34 2 40 -43 -45 0
-18 -43 -32 0
21 6 0
24 -2 0
-7 -17 0
-39 27 0
-45 -1 53 0
5 23 32 -19 0
-8 -16 0
15 15 -22 36 0
-31 34 12 0
17 -10 38 0
-22 -46 32 -26 1 0
-46 43 -32 52 0
-20 -52 -47 0
-48 -32 23 -10 -20 -35 0
-47 -18 -28 0
3 16 17 0
-38 -4 -19 0
5 -29 49 -13 -26 0
-9 50 0
-28 51 -11 0
-40 47 0
-52 40 48 0
-25 20 0
8 -44 49 -18 0
-50 -51 0
4 14 0
32 -35 12 0
25 33 0
41 -42 0
8 44 30 0
45 22 0
-38 12 13 0
-36 -12 0
-21 7 8 32 8 0
-3 -6 0